c ind 11 12 16 17 20 23 24 32 38 45 0
c ind 48 57 60 67 7 70 8 82 91 0
p cnf 96 299
-1 2 0
-1 39 0
-10 -11 12 0
-10 -12 11 0
-13 -14 18 0
-13 14 27 0
-14 -15 0
-15 -16 17 0
-15 -17 16 0
-18 -19 21 0
-18 19 25 0
-19 -16 20 0
-19 -20 16 0
-2 -3 29 0
-2 3 37 0
-21 -22 0
-22 -23 24 0
-22 -24 23 0
-24 0
-25 -26 0
-26 -20 23 0
-26 -23 20 0
-27 -28 0
-28 -23 23 0
-29 -30 31 0
-29 30 33 0
-3 4 13 0
-30 -11 20 0
-30 -20 11 0
-31 -24 32 0
-31 -32 24 0
-33 -14 34 0
-33 14 36 0
-34 -19 31 0
-34 19 35 0
-35 -20 32 0
-35 -32 20 0
-36 -23 32 0
-36 -32 23 0
-37 -32 38 0
-37 -38 32 0
-39 -40 49 0
-39 40 96 0
-4 5 9 0
-40 -24 41 0
-40 -41 24 0
-41 -42 -24 0
-41 42 24 0
-42 -43 -46 0
-42 43 46 0
-43 -44 -20 0
-43 44 20 0
-44 -45 0
-46 -47 -20 0
-46 47 20 0
-47 -48 0
-49 -50 51 0
-49 50 73 0
-5 -6 0
-50 -24 43 0
-50 -43 24 0
-51 -52 61 0
-51 52 71 0
-52 -24 53 0
-52 -53 24 0
-53 -54 -24 0
-53 54 24 0
-54 -55 -58 0
-54 55 58 0
-55 -56 -20 0
-55 56 20 0
-56 -57 0
-58 -59 -20 0
-58 59 20 0
-59 -60 0
-6 -7 8 0
-6 -8 7 0
-61 -62 20 0
-61 62 24 0
-62 -24 63 0
-62 -63 24 0
-63 -64 -24 0
-63 64 24 0
-64 -65 -68 0
-64 65 68 0
-65 -66 -20 0
-65 66 20 0
-66 -67 0
-68 -69 -20 0
-68 69 20 0
-69 -70 0
-71 -72 20 0
-71 72 24 0
-72 -20 68 0
-72 -68 20 0
-73 -74 75 0
-73 74 61 0
-74 -20 55 0
-74 -55 20 0
-75 -52 61 0
-75 52 76 0
-76 -77 83 0
-76 77 95 0
-77 -24 78 0
-77 -78 24 0
-78 -79 -24 0
-78 79 24 0
-79 -46 -80 0
-79 46 80 0
-80 -81 -20 0
-80 81 20 0
-81 -82 0
-83 -84 85 0
-83 84 92 0
-84 -24 46 0
-84 -46 24 0
-85 -86 92 0
-85 86 71 0
-86 -24 87 0
-86 -87 24 0
-87 -88 -24 0
-87 88 24 0
-88 -58 -89 0
-88 58 89 0
-89 -90 -20 0
-89 90 20 0
-9 -10 0
-90 -91 0
-92 -93 20 0
-92 93 94 0
-93 -24 68 0
-93 -68 24 0
-94 -62 20 0
-94 62 71 0
-95 -84 71 0
-95 84 92 0
-96 -50 71 0
-96 50 73 0
1 -2 -39 0
1 0
10 -11 -12 0
10 11 12 0
13 -14 -18 0
13 -18 -27 0
13 14 -27 0
14 15 0
15 -16 -17 0
15 16 17 0
18 -19 -21 0
18 -21 -25 0
18 19 -25 0
19 -16 -20 0
19 16 20 0
2 -29 -37 0
2 -3 -29 0
2 3 -37 0
20 0
21 22 0
22 -23 -24 0
22 23 24 0
25 26 0
26 -23 -20 0
26 23 20 0
27 28 0
28 -23 -23 0
28 23 23 0
29 -30 -31 0
29 -31 -33 0
29 30 -33 0
3 -13 0
3 -4 0
30 -11 -20 0
30 11 20 0
31 -32 -24 0
31 32 24 0
33 -14 -34 0
33 -34 -36 0
33 14 -36 0
34 -19 -31 0
34 -31 -35 0
34 19 -35 0
35 -32 -20 0
35 32 20 0
36 -32 -23 0
36 32 23 0
37 -32 -38 0
37 32 38 0
39 -40 -49 0
39 -49 -96 0
39 40 -96 0
4 -5 0
4 -9 0
40 -41 -24 0
40 41 24 0
41 -24 42 0
41 -42 24 0
42 -43 46 0
42 -46 43 0
43 -20 44 0
43 -44 20 0
44 45 0
46 -20 47 0
46 -47 20 0
47 48 0
49 -50 -51 0
49 -51 -73 0
49 50 -73 0
5 6 0
50 -43 -24 0
50 43 24 0
51 -52 -61 0
51 -61 -71 0
51 52 -71 0
52 -53 -24 0
52 53 24 0
53 -24 54 0
53 -54 24 0
54 -55 58 0
54 -58 55 0
55 -20 56 0
55 -56 20 0
56 57 0
58 -20 59 0
58 -59 20 0
59 60 0
6 -7 -8 0
6 7 8 0
61 -20 -24 0
61 -62 -20 0
61 62 -24 0
62 -63 -24 0
62 63 24 0
63 -24 64 0
63 -64 24 0
64 -65 68 0
64 -68 65 0
65 -20 66 0
65 -66 20 0
66 67 0
68 -20 69 0
68 -69 20 0
69 70 0
71 -20 -24 0
71 -72 -20 0
71 72 -24 0
72 -68 -20 0
72 68 20 0
73 -74 -75 0
73 -75 -61 0
73 74 -61 0
74 -55 -20 0
74 55 20 0
75 -52 -61 0
75 -61 -76 0
75 52 -76 0
76 -77 -83 0
76 -83 -95 0
76 77 -95 0
77 -78 -24 0
77 78 24 0
78 -24 79 0
78 -79 24 0
79 -46 80 0
79 -80 46 0
80 -20 81 0
80 -81 20 0
81 82 0
83 -84 -85 0
83 -85 -92 0
83 84 -92 0
84 -46 -24 0
84 46 24 0
85 -86 -92 0
85 -92 -71 0
85 86 -71 0
86 -87 -24 0
86 87 24 0
87 -24 88 0
87 -88 24 0
88 -58 89 0
88 -89 58 0
89 -20 90 0
89 -90 20 0
9 10 0
90 91 0
92 -20 -94 0
92 -93 -20 0
92 93 -94 0
93 -68 -24 0
93 68 24 0
94 -20 -71 0
94 -62 -20 0
94 62 -71 0
95 -71 -92 0
95 -84 -71 0
95 84 -92 0
96 -50 -71 0
96 -71 -73 0
96 50 -73 0
